
Gurobi 8.1.1 (linux64, Python) logging started Fri Aug 14 09:22:39 2020

Academic license - for non-commercial use only

Gurobi 8.1.1 (linux64, Python) logging started Fri Aug 14 11:36:56 2020

Academic license - for non-commercial use only

Gurobi 8.1.1 (linux64, Python) logging started Fri Aug 14 14:57:04 2020

Academic license - for non-commercial use only
